Code 1034
Dimension, Median
   128       16 
 Facility, Client, Transportation Cost
     1        1           3
     1        2           2
     1        3           3
     1        5           3
     1        9           0
     1       17           2
     1       33           3
     1       65           3
     2        1           0
     2        2           0
     2        4           1
     2        6           0
     2       10           4
     2       18           0
     2       34           1
     2       66           3
     3        1           0
     3        3           3
     3        4           0
     3        7           3
     3       11           2
     3       19           4
     3       35           3
     3       67           0
     4        2           1
     4        3           3
     4        4           0
     4        8           1
     4       12           2
     4       20           1
     4       36           4
     4       68           4
     5        1           1
     5        5           0
     5        6           2
     5        7           0
     5       13           2
     5       21           0
     5       37           4
     5       69           0
     6        2           4
     6        5           0
     6        6           0
     6        8           4
     6       14           2
     6       22           0
     6       38           1
     6       70           4
     7        3           1
     7        5           1
     7        7           3
     7        8           1
     7       15           3
     7       23           0
     7       39           4
     7       71           0
     8        4           4
     8        6           1
     8        7           0
     8        8           4
     8       16           0
     8       24           0
     8       40           4
     8       72           0
     9        1           0
     9        9           0
     9       10           3
     9       11           3
     9       13           4
     9       25           2
     9       41           3
     9       73           4
    10        2           3
    10        9           1
    10       10           3
    10       12           0
    10       14           3
    10       26           1
    10       42           3
    10       74           3
    11        3           4
    11        9           0
    11       11           4
    11       12           1
    11       15           3
    11       27           3
    11       43           2
    11       75           1
    12        4           0
    12       10           0
    12       11           4
    12       12           2
    12       16           3
    12       28           0
    12       44           1
    12       76           1
    13        5           1
    13        9           0
    13       13           4
    13       14           3
    13       15           3
    13       29           2
    13       45           2
    13       77           1
    14        6           3
    14       10           1
    14       13           2
    14       14           4
    14       16           0
    14       30           3
    14       46           2
    14       78           2
    15        7           2
    15       11           4
    15       13           1
    15       15           3
    15       16           1
    15       31           4
    15       47           2
    15       79           2
    16        8           4
    16       12           1
    16       14           1
    16       15           2
    16       16           1
    16       32           2
    16       48           2
    16       80           0
    17        1           3
    17       17           4
    17       18           2
    17       19           3
    17       21           4
    17       25           4
    17       49           3
    17       81           1
    18        2           0
    18       17           0
    18       18           2
    18       20           3
    18       22           4
    18       26           2
    18       50           2
    18       82           3
    19        3           3
    19       17           4
    19       19           1
    19       20           1
    19       23           0
    19       27           4
    19       51           0
    19       83           3
    20        4           4
    20       18           4
    20       19           0
    20       20           3
    20       24           4
    20       28           0
    20       52           2
    20       84           4
    21        5           3
    21       17           1
    21       21           3
    21       22           3
    21       23           1
    21       29           4
    21       53           3
    21       85           1
    22        6           2
    22       18           4
    22       21           2
    22       22           3
    22       24           0
    22       30           1
    22       54           2
    22       86           1
    23        7           0
    23       19           3
    23       21           2
    23       23           0
    23       24           2
    23       31           4
    23       55           1
    23       87           3
    24        8           1
    24       20           0
    24       22           1
    24       23           0
    24       24           1
    24       32           4
    24       56           4
    24       88           0
    25        9           4
    25       17           0
    25       25           3
    25       26           0
    25       27           3
    25       29           3
    25       57           2
    25       89           2
    26       10           1
    26       18           4
    26       25           3
    26       26           2
    26       28           3
    26       30           3
    26       58           3
    26       90           0
    27       11           0
    27       19           4
    27       25           1
    27       27           4
    27       28           0
    27       31           2
    27       59           4
    27       91           0
    28       12           2
    28       20           2
    28       26           4
    28       27           3
    28       28           3
    28       32           4
    28       60           1
    28       92           0
    29       13           0
    29       21           4
    29       25           0
    29       29           2
    29       30           3
    29       31           2
    29       61           0
    29       93           4
    30       14           3
    30       22           2
    30       26           0
    30       29           2
    30       30           2
    30       32           0
    30       62           4
    30       94           0
    31       15           3
    31       23           0
    31       27           1
    31       29           4
    31       31           2
    31       32           2
    31       63           2
    31       95           0
    32       16           3
    32       24           3
    32       28           0
    32       30           1
    32       31           3
    32       32           1
    32       64           2
    32       96           1
    33        1           4
    33       33           4
    33       34           0
    33       35           1
    33       37           0
    33       41           1
    33       49           1
    33       97           3
    34        2           1
    34       33           4
    34       34           4
    34       36           1
    34       38           1
    34       42           1
    34       50           4
    34       98           2
    35        3           1
    35       33           3
    35       35           2
    35       36           0
    35       39           3
    35       43           4
    35       51           2
    35       99           1
    36        4           3
    36       34           3
    36       35           1
    36       36           1
    36       40           1
    36       44           1
    36       52           4
    36      100           3
    37        5           3
    37       33           1
    37       37           1
    37       38           4
    37       39           1
    37       45           2
    37       53           3
    37      101           0
    38        6           4
    38       34           0
    38       37           0
    38       38           0
    38       40           4
    38       46           1
    38       54           4
    38      102           2
    39        7           2
    39       35           2
    39       37           3
    39       39           4
    39       40           2
    39       47           4
    39       55           0
    39      103           0
    40        8           2
    40       36           1
    40       38           1
    40       39           2
    40       40           0
    40       48           1
    40       56           0
    40      104           4
    41        9           4
    41       33           4
    41       41           2
    41       42           1
    41       43           0
    41       45           1
    41       57           3
    41      105           3
    42       10           3
    42       34           4
    42       41           1
    42       42           0
    42       44           1
    42       46           3
    42       58           1
    42      106           3
    43       11           2
    43       35           0
    43       41           3
    43       43           0
    43       44           3
    43       47           2
    43       59           1
    43      107           3
    44       12           4
    44       36           4
    44       42           3
    44       43           0
    44       44           4
    44       48           0
    44       60           1
    44      108           0
    45       13           2
    45       37           2
    45       41           0
    45       45           3
    45       46           3
    45       47           2
    45       61           2
    45      109           0
    46       14           2
    46       38           0
    46       42           4
    46       45           2
    46       46           3
    46       48           3
    46       62           1
    46      110           3
    47       15           0
    47       39           4
    47       43           2
    47       45           0
    47       47           4
    47       48           0
    47       63           1
    47      111           3
    48       16           1
    48       40           4
    48       44           0
    48       46           1
    48       47           1
    48       48           3
    48       64           2
    48      112           1
    49       17           4
    49       33           4
    49       49           0
    49       50           1
    49       51           0
    49       53           0
    49       57           1
    49      113           0
    50       18           0
    50       34           2
    50       49           1
    50       50           1
    50       52           1
    50       54           3
    50       58           0
    50      114           4
    51       19           2
    51       35           3
    51       49           0
    51       51           3
    51       52           0
    51       55           0
    51       59           3
    51      115           1
    52       20           1
    52       36           3
    52       50           4
    52       51           3
    52       52           1
    52       56           0
    52       60           3
    52      116           1
    53       21           4
    53       37           1
    53       49           1
    53       53           1
    53       54           0
    53       55           1
    53       61           3
    53      117           1
    54       22           3
    54       38           4
    54       50           4
    54       53           2
    54       54           1
    54       56           1
    54       62           4
    54      118           3
    55       23           0
    55       39           0
    55       51           3
    55       53           3
    55       55           2
    55       56           3
    55       63           4
    55      119           2
    56       24           3
    56       40           1
    56       52           2
    56       54           0
    56       55           4
    56       56           0
    56       64           2
    56      120           3
    57       25           4
    57       41           0
    57       49           3
    57       57           0
    57       58           3
    57       59           4
    57       61           3
    57      121           0
    58       26           2
    58       42           0
    58       50           3
    58       57           3
    58       58           1
    58       60           1
    58       62           0
    58      122           2
    59       27           4
    59       43           3
    59       51           2
    59       57           3
    59       59           1
    59       60           4
    59       63           2
    59      123           0
    60       28           0
    60       44           2
    60       52           4
    60       58           2
    60       59           4
    60       60           1
    60       64           2
    60      124           4
    61       29           1
    61       45           4
    61       53           0
    61       57           0
    61       61           3
    61       62           1
    61       63           4
    61      125           2
    62       30           4
    62       46           1
    62       54           4
    62       58           3
    62       61           4
    62       62           0
    62       64           2
    62      126           4
    63       31           2
    63       47           1
    63       55           4
    63       59           2
    63       61           3
    63       63           1
    63       64           3
    63      127           0
    64       32           4
    64       48           0
    64       56           2
    64       60           4
    64       62           4
    64       63           0
    64       64           0
    64      128           4
    65        1           1
    65       65           4
    65       66           2
    65       67           4
    65       69           4
    65       73           4
    65       81           2
    65       97           4
    66        2           3
    66       65           4
    66       66           4
    66       68           4
    66       70           3
    66       74           3
    66       82           3
    66       98           0
    67        3           4
    67       65           3
    67       67           0
    67       68           1
    67       71           1
    67       75           0
    67       83           2
    67       99           2
    68        4           4
    68       66           0
    68       67           2
    68       68           4
    68       72           1
    68       76           1
    68       84           1
    68      100           1
    69        5           0
    69       65           3
    69       69           2
    69       70           2
    69       71           4
    69       77           3
    69       85           3
    69      101           2
    70        6           0
    70       66           0
    70       69           4
    70       70           4
    70       72           4
    70       78           2
    70       86           2
    70      102           2
    71        7           3
    71       67           1
    71       69           2
    71       71           3
    71       72           1
    71       79           3
    71       87           3
    71      103           0
    72        8           1
    72       68           3
    72       70           1
    72       71           1
    72       72           1
    72       80           4
    72       88           2
    72      104           1
    73        9           1
    73       65           3
    73       73           4
    73       74           4
    73       75           2
    73       77           2
    73       89           4
    73      105           1
    74       10           3
    74       66           3
    74       73           2
    74       74           0
    74       76           0
    74       78           3
    74       90           1
    74      106           2
    75       11           4
    75       67           1
    75       73           4
    75       75           3
    75       76           2
    75       79           1
    75       91           0
    75      107           2
    76       12           1
    76       68           0
    76       74           2
    76       75           3
    76       76           2
    76       80           1
    76       92           0
    76      108           3
    77       13           0
    77       69           2
    77       73           1
    77       77           4
    77       78           1
    77       79           0
    77       93           2
    77      109           3
    78       14           0
    78       70           3
    78       74           0
    78       77           3
    78       78           0
    78       80           0
    78       94           3
    78      110           4
    79       15           3
    79       71           4
    79       75           3
    79       77           4
    79       79           0
    79       80           0
    79       95           1
    79      111           4
    80       16           4
    80       72           0
    80       76           3
    80       78           1
    80       79           4
    80       80           1
    80       96           0
    80      112           1
    81       17           0
    81       65           2
    81       81           4
    81       82           3
    81       83           0
    81       85           2
    81       89           2
    81      113           3
    82       18           3
    82       66           0
    82       81           2
    82       82           3
    82       84           4
    82       86           3
    82       90           0
    82      114           3
    83       19           2
    83       67           0
    83       81           3
    83       83           4
    83       84           2
    83       87           0
    83       91           3
    83      115           2
    84       20           1
    84       68           4
    84       82           2
    84       83           2
    84       84           4
    84       88           2
    84       92           3
    84      116           0
    85       21           3
    85       69           1
    85       81           1
    85       85           0
    85       86           0
    85       87           1
    85       93           1
    85      117           1
    86       22           2
    86       70           3
    86       82           0
    86       85           0
    86       86           0
    86       88           3
    86       94           0
    86      118           4
    87       23           2
    87       71           4
    87       83           2
    87       85           4
    87       87           3
    87       88           1
    87       95           1
    87      119           4
    88       24           0
    88       72           4
    88       84           2
    88       86           2
    88       87           4
    88       88           0
    88       96           3
    88      120           4
    89       25           1
    89       73           2
    89       81           4
    89       89           1
    89       90           0
    89       91           4
    89       93           1
    89      121           4
    90       26           0
    90       74           2
    90       82           3
    90       89           0
    90       90           1
    90       92           4
    90       94           4
    90      122           1
    91       27           1
    91       75           3
    91       83           0
    91       89           2
    91       91           2
    91       92           3
    91       95           0
    91      123           0
    92       28           0
    92       76           3
    92       84           2
    92       90           3
    92       91           3
    92       92           3
    92       96           4
    92      124           0
    93       29           2
    93       77           1
    93       85           2
    93       89           4
    93       93           2
    93       94           2
    93       95           3
    93      125           1
    94       30           3
    94       78           3
    94       86           2
    94       90           1
    94       93           1
    94       94           4
    94       96           2
    94      126           3
    95       31           0
    95       79           3
    95       87           2
    95       91           2
    95       93           2
    95       95           1
    95       96           1
    95      127           0
    96       32           3
    96       80           4
    96       88           2
    96       92           3
    96       94           3
    96       95           4
    96       96           2
    96      128           0
    97       33           1
    97       65           3
    97       97           4
    97       98           2
    97       99           2
    97      101           0
    97      105           2
    97      113           2
    98       34           2
    98       66           0
    98       97           4
    98       98           2
    98      100           2
    98      102           2
    98      106           0
    98      114           4
    99       35           2
    99       67           1
    99       97           1
    99       99           3
    99      100           0
    99      103           2
    99      107           0
    99      115           1
   100       36           2
   100       68           0
   100       98           1
   100       99           2
   100      100           3
   100      104           1
   100      108           0
   100      116           0
   101       37           3
   101       69           0
   101       97           2
   101      101           3
   101      102           3
   101      103           4
   101      109           3
   101      117           3
   102       38           1
   102       70           3
   102       98           2
   102      101           0
   102      102           3
   102      104           2
   102      110           0
   102      118           4
   103       39           3
   103       71           3
   103       99           4
   103      101           1
   103      103           1
   103      104           3
   103      111           2
   103      119           0
   104       40           3
   104       72           1
   104      100           1
   104      102           0
   104      103           4
   104      104           2
   104      112           2
   104      120           0
   105       41           4
   105       73           4
   105       97           2
   105      105           4
   105      106           2
   105      107           0
   105      109           3
   105      121           2
   106       42           3
   106       74           3
   106       98           2
   106      105           3
   106      106           0
   106      108           1
   106      110           1
   106      122           1
   107       43           2
   107       75           2
   107       99           2
   107      105           3
   107      107           2
   107      108           4
   107      111           2
   107      123           0
   108       44           3
   108       76           3
   108      100           4
   108      106           4
   108      107           2
   108      108           4
   108      112           0
   108      124           2
   109       45           0
   109       77           0
   109      101           3
   109      105           2
   109      109           4
   109      110           1
   109      111           0
   109      125           1
   110       46           3
   110       78           0
   110      102           4
   110      106           2
   110      109           2
   110      110           2
   110      112           4
   110      126           4
   111       47           2
   111       79           4
   111      103           0
   111      107           2
   111      109           0
   111      111           4
   111      112           1
   111      127           3
   112       48           4
   112       80           2
   112      104           0
   112      108           2
   112      110           4
   112      111           1
   112      112           2
   112      128           2
   113       49           1
   113       81           4
   113       97           0
   113      113           3
   113      114           0
   113      115           0
   113      117           0
   113      121           3
   114       50           1
   114       82           4
   114       98           2
   114      113           0
   114      114           4
   114      116           2
   114      118           1
   114      122           2
   115       51           4
   115       83           2
   115       99           0
   115      113           2
   115      115           2
   115      116           3
   115      119           4
   115      123           0
   116       52           0
   116       84           1
   116      100           2
   116      114           2
   116      115           1
   116      116           2
   116      120           1
   116      124           4
   117       53           1
   117       85           1
   117      101           4
   117      113           2
   117      117           2
   117      118           2
   117      119           0
   117      125           4
   118       54           0
   118       86           1
   118      102           3
   118      114           1
   118      117           4
   118      118           3
   118      120           1
   118      126           2
   119       55           2
   119       87           0
   119      103           4
   119      115           0
   119      117           1
   119      119           1
   119      120           0
   119      127           4
   120       56           1
   120       88           3
   120      104           0
   120      116           0
   120      118           1
   120      119           3
   120      120           4
   120      128           0
   121       57           0
   121       89           4
   121      105           1
   121      113           0
   121      121           0
   121      122           4
   121      123           0
   121      125           0
   122       58           1
   122       90           0
   122      106           4
   122      114           1
   122      121           3
   122      122           3
   122      124           0
   122      126           0
   123       59           1
   123       91           4
   123      107           4
   123      115           3
   123      121           3
   123      123           4
   123      124           3
   123      127           3
   124       60           3
   124       92           2
   124      108           2
   124      116           2
   124      122           0
   124      123           4
   124      124           4
   124      128           1
   125       61           4
   125       93           1
   125      109           1
   125      117           1
   125      121           0
   125      125           3
   125      126           2
   125      127           0
   126       62           4
   126       94           4
   126      110           2
   126      118           0
   126      122           3
   126      125           1
   126      126           0
   126      128           2
   127       63           1
   127       95           4
   127      111           3
   127      119           3
   127      123           0
   127      125           3
   127      127           0
   127      128           0
   128       64           2
   128       96           4
   128      112           0
   128      120           0
   128      124           4
   128      126           1
   128      127           0
   128      128           0
